1853270
45,33,54,25,65,10,6,66,63,5,40,29,24,2,60,41,11,31,55,39,18,48,22,59,28,4,53,12,46,0,23,62,15,35,58,16,26,1,47,19,3,64,44,57,8,7,14,67,34,52,36,38,61,50,49,27,43,13,56,32,17,9,51,30,21,20,37,42